399,794
616,820
658,554
858,434
1135,175
935,152
871,216
765,322
699,349
823,360
937,489
822,600
829,554
850,283
681,-134
597,-127
542,-21
735,512
799,424
802,318
734,379
624,424
363,724
488,672
441,406
178,327
207,481
888,374
1184,327
751,-38
